DATASET = "thpack3";
INSTANCE = "059";

WIDTH = 233;
HEIGHT = 220;
LENGTH = 587;

NO_OF_SHAPES = 8;
size = [|
  76,52,46 |
  66,59,31 |
  62,55,44 |
  95,46,36 |
  63,59,35 |
  100,37,32 |
  91,54,37 |
  49,44,36 |
|];

verticality = [|
  1,1,1 |
  0,1,1 |
  1,1,1 |
  0,1,1 |
  1,1,1 |
  0,1,1 |
  0,1,1 |
  1,1,1 |
|];

box_count = [
  25,
  35,
  23,
  16,
  30,
  30,
  33,
  24,
];
